c smth
s vc 200 136
200
196
195
192
190
189
188
185
182
181
180
178
177
176
175
174
173
171
170
169
166
165
164
163
162
161
159
157
155
153
151
150
149
148
146
145
144
143
142
139
138
136
135
133
131
129
128
125
122
120
119
118
115
114
113
111
110
109
108
105
104
100
99
96
95
94
93
92
89
88
87
86
85
84
82
81
80
79
78
77
75
72
71
69
68
66
63
62
61
60
59
58
56
55
54
53
52
51
50
49
48
47
46
45
44
43
42
41
39
38
36
35
34
31
30
29
28
27
26
25
24
23
22
20
18
17
16
14
13
12
11
10
8
6
3
1